\ENCODING=ISO-8859-1
\Problem name: ilog.cplex

Minimize
 obj1: 92799 x1 + 94717 x2 + 98419 x3 + 104149 x4 + 90392 x5 + 91838 x6
       + 97460 x7 + 107415 x8 + 95963 x9 + 108240 x10 + 105621 x11 + 93569 x12
       + 97140 x13 + 107328 x14 + 90204 x15 + 101906 x16 + 93081 x17
       + 107276 x18 + 100057 x19 + 96843 x20 + 96748 x21 + 94947 x22
       + 103004 x23 + 94693 x24 + 90725 x25 + 90571 x26 + 102085 x27
       + 102715 x28 + 90087 x29 + 90940 x30 + 96401 x31 + 92101 x32
       + 104293 x33 + 106866 x34 + 101104 x35 + 97380 x36 + 94150 x37
       + 109248 x38 + 105500 x39 + 106138 x40 + 109613 x41 + 107350 x42
       + 108220 x43 + 94989 x44 + 109491 x45 + 102746 x46 + 104092 x47
       + 100439 x48 + 105139 x49 + 92878 x50 + 108576 x51 + 106550 x52
       + 96724 x53 + 99285 x54 + 92562 x55 + 105265 x56 + 102937 x57
       + 107303 x58 + 102813 x59 + 99793 x60 + 96631 x61 + 91659 x62
       + 93238 x63 + 92097 x64 + 107590 x65 + 102709 x66 + 103420 x67
       + 108050 x68 + 99651 x69 + 99720 x70 + 91579 x71 + 106179 x72
       + 107484 x73 + 107462 x74 + 105031 x75 + 106748 x76 + 101165 x77
       + 91872 x78 + 91114 x79 + 98942 x80 + 99934 x81 + 93810 x82 + 104771 x83
       + 102132 x84 + 101732 x85 + 97379 x86 + 99554 x87 + 100870 x88
       + 97836 x89 + 96640 x90 + 92627 x91 + 94742 x92 + 102074 x93 + 92999 x94
       + 92310 x95 + 102917 x96 + 104899 x97 + 109626 x98 + 105355 x99
       + 97677 x100 + 104038 x101 + 108982 x102 + 100335 x103 + 91210 x104
       + 105466 x105 + 104856 x106 + 93431 x107 + 105572 x108 + 91159 x109
       + 91264 x110 + 103379 x111 + 97050 x112 + 93340 x113 + 107159 x114
       + 93431 x115 + 102980 x116 + 98901 x117 + 98094 x118 + 99965 x119
       + 91659 x120 + 104098 x121 + 109662 x122 + 94269 x123 + 90428 x124
       + 100128 x125 + 105240 x126 + 95398 x127 + 94047 x128 + 100801 x129
       + 92601 x130 + 91192 x131 + 94337 x132 + 94012 x133 + 96433 x134
       + 98314 x135 + 97533 x136 + 100923 x137 + 93394 x138 + 105956 x139
       + 108633 x140 + 107048 x141 + 91276 x142 + 94982 x143 + 92791 x144
       + 103752 x145 + 103968 x146 + 97658 x147 + 97808 x148 + 103413 x149
       + 109336 x150 + 92116 x151 + 91090 x152 + 104684 x153 + 107315 x154
       + 104139 x155 + 92454 x156 + 93009 x157 + 106313 x158 + 92946 x159
       + 102747 x160 + 105993 x161 + 97445 x162 + 107359 x163 + 97513 x164
       + 93207 x165 + 108166 x166 + 94058 x167 + 94782 x168 + 95669 x169
       + 99570 x170 + 100615 x171 + 96551 x172 + 101517 x173 + 104873 x174
       + 102535 x175 + 104647 x176 + 101272 x177 + 100592 x178 + 95791 x179
       + 103388 x180 + 103838 x181 + 90767 x182 + 104973 x183 + 93859 x184
       + 97410 x185 + 106233 x186 + 108543 x187 + 98107 x188 + 90236 x189
       + 97280 x190 + 96058 x191 + 106817 x192 + 103893 x193 + 109257 x194
       + 100947 x195 + 99628 x196 + 93001 x197 + 109739 x198 + 107949 x199
       + 104290 x200 + 105664 x201 + 96641 x202 + 95342 x203 + 95105 x204
       + 98833 x205 + 96344 x206 + 97986 x207 + 102971 x208 + 97435 x209
       + 100446 x210 + 96109 x211 + 101502 x212 + 93450 x213 + 92826 x214
       + 94927 x215 + 102122 x216 + 99122 x217 + 97543 x218 + 101038 x219
       + 105117 x220 + 97095 x221 + 92443 x222 + 102895 x223 + 93342 x224
       + 109502 x225 + 103393 x226 + 104758 x227 + 100617 x228 + 97910 x229
       + 99675 x230 + 106186 x231 + 97784 x232 + 106503 x233 + 92388 x234
       + 102426 x235 + 96002 x236 + 91992 x237 + 94553 x238 + 104993 x239
       + 109046 x240 + 104217 x241 + 103978 x242 + 99602 x243 + 97153 x244
       + 104928 x245 + 91865 x246 + 100424 x247 + 92546 x248 + 107106 x249
       + 106972 x250 + 106320 x251 + 105960 x252 + 96261 x253 + 109257 x254
       + 101543 x255 + 101491 x256 + 102414 x257 + 105646 x258 + 103178 x259
       + 99159 x260 + 106009 x261 + 109747 x262 + 97682 x263 + 97865 x264
       + 109545 x265 + 91345 x266 + 92064 x267 + 109171 x268 + 96852 x269
       + 97326 x270 + 93603 x271 + 104637 x272 + 94767 x273 + 103026 x274
       + 105147 x275 + 109641 x276 + 90445 x277 + 101006 x278 + 91785 x279
       + 107409 x280 + 101579 x281 + 92854 x282 + 99105 x283 + 108384 x284
       + 106567 x285 + 98862 x286 + 103254 x287 + 92156 x288 + 96939 x289
       + 100283 x290 + 108665 x291 + 101805 x292 + 95354 x293 + 99363 x294
       + 100583 x295 + 103846 x296 + 109051 x297 + 103461 x298 + 106424 x299
       + 88361 x300 + 19785 x301 + 20685 x302 + 21628 x303 + 18547 x304
       + 21380 x305 + 20137 x306 + 20812 x307 + 20426 x308 + 18098 x309
       + 19397 x310 + 21151 x311 + 21407 x312 + 20710 x313 + 20112 x314
       + 18936 x315 + 21542 x316 + 18955 x317 + 21203 x318 + 21680 x319
       + 19817 x320 + 18942 x321 + 21995 x322 + 21197 x323 + 19123 x324
       + 21992 x325 + 19915 x326 + 20047 x327 + 18249 x328 + 18673 x329
       + 20227 x330 + 20847 x331 + 18064 x332 + 19394 x333 + 18079 x334
       + 20244 x335 + 19114 x336 + 20868 x337 + 19333 x338 + 18001 x339
       + 19208 x340 + 20126 x341 + 20216 x342 + 20693 x343 + 20325 x344
       + 18475 x345 + 18773 x346 + 20889 x347 + 20320 x348 + 18898 x349
       + 19413 x350 + 18526 x351 + 20383 x352 + 19852 x353 + 19542 x354
       + 21311 x355 + 20114 x356 + 18292 x357 + 18324 x358 + 19518 x359
       + 26090 x360
Subject To
 c1:   - x1 - x14 - x47 - x48 - x50 - x56 + x57 - x58  = 0
 c2:   - x61 - x74 - x107 - x108 - x110 - x116 + x117 - x118  = 0
 c3:   - x121 - x134 - x167 - x168 - x170 - x176 + x177 - x178  = 0
 c4:   - x181 - x194 - x227 - x228 - x230 - x236 + x237 - x238  = 0
 c5:   - x241 - x254 - x287 - x288 - x290 - x296 + x297 - x298  = 0
 c6:   - x3 + x4 + x5 + x13 - x16 - x19 - x43 - x51 - x60  = 1
 c7:   - x63 + x64 + x65 + x73 - x76 - x79 - x103 - x111 - x120  = 0
 c8:   - x123 + x124 + x125 + x133 - x136 - x139 - x163 - x171 - x180  = 0
 c9:   - x183 + x184 + x185 + x193 - x196 - x199 - x223 - x231 - x240  = 0
 c10:  - x243 + x244 + x245 + x253 - x256 - x259 - x283 - x291 - x300  = 0
 c11:  x9 - x10 + x17 - x18 + x23 - x24 + x27 - x29 - x32 - x54  = 0
 c12:  x69 - x70 + x77 - x78 + x83 - x84 + x87 - x89 - x92 - x114  = 0
 c13:  x129 - x130 + x137 - x138 + x143 - x144 + x147 - x149 - x152 - x174  = 0
 c14:  x189 - x190 + x197 - x198 + x203 - x204 + x207 - x209 - x212 - x234  = 0
 c15:  x249 - x250 + x257 - x258 + x263 - x264 + x267 - x269 - x272 - x294  = 0
 c16:  - x21 - x30 - x41 + x45 + x53 + x60  = 0
 c17:  - x81 - x90 - x101 + x105 + x113 + x120  = 0
 c18:  - x141 - x150 - x161 + x165 + x173 + x180  = 0
 c19:  - x201 - x210 - x221 + x225 + x233 + x240  = -1
 c20:  - x261 - x270 - x281 + x285 + x293 + x300  = 1
 c21:  - x23 + x33 + x43 + x47 + x49  = 0
 c22:  - x83 + x93 + x103 + x107 + x109  = 0
 c23:  - x143 + x153 + x163 + x167 + x169  = 0
 c24:  - x203 + x213 + x223 + x227 + x229  = 1
 c25:  - x263 + x273 + x283 + x287 + x289  = 0
 c26:  - x2 + x6 + x7 - x13 - x15 + x19 - x20 + x30 + x34 - x37 + x50  = 0
 c27:  - x62 + x66 + x67 - x73 - x75 + x79 - x80 + x90 + x94 - x97 + x110  = 0
 c28:  - x122 + x126 + x127 - x133 - x135 + x139 - x140 + x150 + x154 - x157
       + x170  = 0
 c29:  - x182 + x186 + x187 - x193 - x195 + x199 - x200 + x210 + x214 - x217
       + x230  = 0
 c30:  - x242 + x246 + x247 - x253 - x255 + x259 - x260 + x270 + x274 - x277
       + x290  = 0
 c31:  x1 - x9 - x11 + x16 + x20 + x21 + x29  = 0
 c32:  x61 - x69 - x71 + x76 + x80 + x81 + x89  = 0
 c33:  x121 - x129 - x131 + x136 + x140 + x141 + x149  = 0
 c34:  x181 - x189 - x191 + x196 + x200 + x201 + x209  = 0
 c35:  x241 - x249 - x251 + x256 + x260 + x261 + x269  = 0
 c36:  x2 + x8 + x26 - x35 - x38 + x41 + x54 - x57  = 0
 c37:  x62 + x68 + x86 - x95 - x98 + x101 + x114 - x117  = 0
 c38:  x122 + x128 + x146 - x155 - x158 + x161 + x174 - x177  = -1
 c39:  x182 + x188 + x206 - x215 - x218 + x221 + x234 - x237  = 0
 c40:  x242 + x248 + x266 - x275 - x278 + x281 + x294 - x297  = 0
 c41:  - x6 - x28 + x42 + x44 - x45  = 0
 c42:  - x66 - x88 + x102 + x104 - x105  = -1
 c43:  - x126 - x148 + x162 + x164 - x165  = 0
 c44:  - x186 - x208 + x222 + x224 - x225  = 0
 c45:  - x246 - x268 + x282 + x284 - x285  = 0
 c46:  x24 - x36 + x39 - x42 - x46 + x56  = 0
 c47:  x84 - x96 + x99 - x102 - x106 + x116  = 0
 c48:  x144 - x156 + x159 - x162 - x166 + x176  = 0
 c49:  x204 - x216 + x219 - x222 - x226 + x236  = 0
 c50:  x264 - x276 + x279 - x282 - x286 + x296  = 0
 c51:  x3 - x5 - x7 + x22 + x25 - x26 - x31 + x37 - x44 - x49 - x52 - x59  = -1
 c52:  x63 - x65 - x67 + x82 + x85 - x86 - x91 + x97 - x104 - x109 - x112
       - x119  = 0
 c53:  x123 - x125 - x127 + x142 + x145 - x146 - x151 + x157 - x164 - x169
       - x172 - x179  = 1
 c54:  x183 - x185 - x187 + x202 + x205 - x206 - x211 + x217 - x224 - x229
       - x232 - x239  = 0
 c55:  x243 - x245 - x247 + x262 + x265 - x266 - x271 + x277 - x284 - x289
       - x292 - x299  = 0
 c56:  x12 - x27 - x34 + x38 - x40 + x48 + x51 + x55  = 0
 c57:  x72 - x87 - x94 + x98 - x100 + x108 + x111 + x115  = 0
 c58:  x132 - x147 - x154 + x158 - x160 + x168 + x171 + x175  = 0
 c59:  x192 - x207 - x214 + x218 - x220 + x228 + x231 + x235  = 0
 c60:  x252 - x267 - x274 + x278 - x280 + x288 + x291 + x295  = 0
 c61:  x15 + x18 - x25 + x28 + x35 + x36 - x39 + x52 - x55  = 0
 c62:  x75 + x78 - x85 + x88 + x95 + x96 - x99 + x112 - x115  = 1
 c63:  x135 + x138 - x145 + x148 + x155 + x156 - x159 + x172 - x175  = 0
 c64:  x195 + x198 - x205 + x208 + x215 + x216 - x219 + x232 - x235  = 0
 c65:  x255 + x258 - x265 + x268 + x275 + x276 - x279 + x292 - x295  = -1
 c66:  x11 - x12 + x14 + x31 + x32 - x33 + x46  = 0
 c67:  x71 - x72 + x74 + x91 + x92 - x93 + x106  = 0
 c68:  x131 - x132 + x134 + x151 + x152 - x153 + x166  = 0
 c69:  x191 - x192 + x194 + x211 + x212 - x213 + x226  = 0
 c70:  x251 - x252 + x254 + x271 + x272 - x273 + x286  = 0
 c71:  - x4 - x8 + x10 - x17 - x22 + x40 - x53 + x58 + x59  = 0
 c72:  - x64 - x68 + x70 - x77 - x82 + x100 - x113 + x118 + x119  = 0
 c73:  - x124 - x128 + x130 - x137 - x142 + x160 - x173 + x178 + x179  = 0
 c74:  - x184 - x188 + x190 - x197 - x202 + x220 - x233 + x238 + x239  = 0
 c75:  - x244 - x248 + x250 - x257 - x262 + x280 - x293 + x298 + x299  = 0
 c76:  4 x1 + 4 x61 + 4 x121 + 4 x181 + 4 x241 - 9 x301 <= 0
 c77:  4 x2 + 4 x62 + 4 x122 + 4 x182 + 4 x242 - 9 x302 <= 0
 c78:  4 x3 + 4 x63 + 4 x123 + 4 x183 + 4 x243 - 10 x303 <= 0
 c79:  4 x4 + 4 x64 + 4 x124 + 4 x184 + 4 x244 - 11 x304 <= 0
 c80:  4 x5 + 4 x65 + 4 x125 + 4 x185 + 4 x245 - 11 x305 <= 0
 c81:  4 x6 + 4 x66 + 4 x126 + 4 x186 + 4 x246 - 11 x306 <= 0
 c82:  4 x7 + 4 x67 + 4 x127 + 4 x187 + 4 x247 - 11 x307 <= 0
 c83:  4 x8 + 4 x68 + 4 x128 + 4 x188 + 4 x248 - 10 x308 <= 0
 c84:  4 x9 + 4 x69 + 4 x129 + 4 x189 + 4 x249 - 11 x309 <= 0
 c85:  4 x10 + 4 x70 + 4 x130 + 4 x190 + 4 x250 - 9 x310 <= 0
 c86:  4 x11 + 4 x71 + 4 x131 + 4 x191 + 4 x251 - 10 x311 <= 0
 c87:  4 x12 + 4 x72 + 4 x132 + 4 x192 + 4 x252 - 10 x312 <= 0
 c88:  4 x13 + 4 x73 + 4 x133 + 4 x193 + 4 x253 - 10 x313 <= 0
 c89:  4 x14 + 4 x74 + 4 x134 + 4 x194 + 4 x254 - 11 x314 <= 0
 c90:  4 x15 + 4 x75 + 4 x135 + 4 x195 + 4 x255 - 10 x315 <= 0
 c91:  4 x16 + 4 x76 + 4 x136 + 4 x196 + 4 x256 - 10 x316 <= 0
 c92:  4 x17 + 4 x77 + 4 x137 + 4 x197 + 4 x257 - 10 x317 <= 0
 c93:  4 x18 + 4 x78 + 4 x138 + 4 x198 + 4 x258 - 10 x318 <= 0
 c94:  4 x19 + 4 x79 + 4 x139 + 4 x199 + 4 x259 - 11 x319 <= 0
 c95:  4 x20 + 4 x80 + 4 x140 + 4 x200 + 4 x260 - 9 x320 <= 0
 c96:  4 x21 + 4 x81 + 4 x141 + 4 x201 + 4 x261 - 10 x321 <= 0
 c97:  4 x22 + 4 x82 + 4 x142 + 4 x202 + 4 x262 - 9 x322 <= 0
 c98:  4 x23 + 4 x83 + 4 x143 + 4 x203 + 4 x263 - 10 x323 <= 0
 c99:  4 x24 + 4 x84 + 4 x144 + 4 x204 + 4 x264 - 10 x324 <= 0
 c100: 4 x25 + 4 x85 + 4 x145 + 4 x205 + 4 x265 - 10 x325 <= 0
 c101: 4 x26 + 4 x86 + 4 x146 + 4 x206 + 4 x266 - 10 x326 <= 0
 c102: 4 x27 + 4 x87 + 4 x147 + 4 x207 + 4 x267 - 9 x327 <= 0
 c103: 4 x28 + 4 x88 + 4 x148 + 4 x208 + 4 x268 - 9 x328 <= 0
 c104: 4 x29 + 4 x89 + 4 x149 + 4 x209 + 4 x269 - 11 x329 <= 0
 c105: 4 x30 + 4 x90 + 4 x150 + 4 x210 + 4 x270 - 10 x330 <= 0
 c106: 4 x31 + 4 x91 + 4 x151 + 4 x211 + 4 x271 - 9 x331 <= 0
 c107: 4 x32 + 4 x92 + 4 x152 + 4 x212 + 4 x272 - 10 x332 <= 0
 c108: 4 x33 + 4 x93 + 4 x153 + 4 x213 + 4 x273 - 10 x333 <= 0
 c109: 4 x34 + 4 x94 + 4 x154 + 4 x214 + 4 x274 - 10 x334 <= 0
 c110: 4 x35 + 4 x95 + 4 x155 + 4 x215 + 4 x275 - 11 x335 <= 0
 c111: 4 x36 + 4 x96 + 4 x156 + 4 x216 + 4 x276 - 9 x336 <= 0
 c112: 4 x37 + 4 x97 + 4 x157 + 4 x217 + 4 x277 - 10 x337 <= 0
 c113: 4 x38 + 4 x98 + 4 x158 + 4 x218 + 4 x278 - 9 x338 <= 0
 c114: 4 x39 + 4 x99 + 4 x159 + 4 x219 + 4 x279 - 9 x339 <= 0
 c115: 4 x40 + 4 x100 + 4 x160 + 4 x220 + 4 x280 - 10 x340 <= 0
 c116: 4 x41 + 4 x101 + 4 x161 + 4 x221 + 4 x281 - 11 x341 <= 0
 c117: 4 x42 + 4 x102 + 4 x162 + 4 x222 + 4 x282 - 10 x342 <= 0
 c118: 4 x43 + 4 x103 + 4 x163 + 4 x223 + 4 x283 - 10 x343 <= 0
 c119: 4 x44 + 4 x104 + 4 x164 + 4 x224 + 4 x284 - 10 x344 <= 0
 c120: 4 x45 + 4 x105 + 4 x165 + 4 x225 + 4 x285 - 9 x345 <= 0
 c121: 4 x46 + 4 x106 + 4 x166 + 4 x226 + 4 x286 - 9 x346 <= 0
 c122: 4 x47 + 4 x107 + 4 x167 + 4 x227 + 4 x287 - 10 x347 <= 0
 c123: 4 x48 + 4 x108 + 4 x168 + 4 x228 + 4 x288 - 10 x348 <= 0
 c124: 4 x49 + 4 x109 + 4 x169 + 4 x229 + 4 x289 - 10 x349 <= 0
 c125: 4 x50 + 4 x110 + 4 x170 + 4 x230 + 4 x290 - 10 x350 <= 0
 c126: 4 x51 + 4 x111 + 4 x171 + 4 x231 + 4 x291 - 10 x351 <= 0
 c127: 4 x52 + 4 x112 + 4 x172 + 4 x232 + 4 x292 - 11 x352 <= 0
 c128: 4 x53 + 4 x113 + 4 x173 + 4 x233 + 4 x293 - 10 x353 <= 0
 c129: 4 x54 + 4 x114 + 4 x174 + 4 x234 + 4 x294 - 10 x354 <= 0
 c130: 4 x55 + 4 x115 + 4 x175 + 4 x235 + 4 x295 - 9 x355 <= 0
 c131: 4 x56 + 4 x116 + 4 x176 + 4 x236 + 4 x296 - 11 x356 <= 0
 c132: 4 x57 + 4 x117 + 4 x177 + 4 x237 + 4 x297 - 9 x357 <= 0
 c133: 4 x58 + 4 x118 + 4 x178 + 4 x238 + 4 x298 - 9 x358 <= 0
 c134: 4 x59 + 4 x119 + 4 x179 + 4 x239 + 4 x299 - 10 x359 <= 0
 c135: 4 x60 + 4 x120 + 4 x180 + 4 x240 + 4 x300 - 14 x360 <= 0
Bounds
 0 <= x1 <= 1
 0 <= x2 <= 1
 0 <= x3 <= 1
 0 <= x4 <= 1
 0 <= x5 <= 1
 0 <= x6 <= 1
 0 <= x7 <= 1
 0 <= x8 <= 1
 0 <= x9 <= 1
 0 <= x10 <= 1
 0 <= x11 <= 1
 0 <= x12 <= 1
 0 <= x13 <= 1
 0 <= x14 <= 1
 0 <= x15 <= 1
 0 <= x16 <= 1
 0 <= x17 <= 1
 0 <= x18 <= 1
 0 <= x19 <= 1
 0 <= x20 <= 1
 0 <= x21 <= 1
 0 <= x22 <= 1
 0 <= x23 <= 1
 0 <= x24 <= 1
 0 <= x25 <= 1
 0 <= x26 <= 1
 0 <= x27 <= 1
 0 <= x28 <= 1
 0 <= x29 <= 1
 0 <= x30 <= 1
 0 <= x31 <= 1
 0 <= x32 <= 1
 0 <= x33 <= 1
 0 <= x34 <= 1
 0 <= x35 <= 1
 0 <= x36 <= 1
 0 <= x37 <= 1
 0 <= x38 <= 1
 0 <= x39 <= 1
 0 <= x40 <= 1
 0 <= x41 <= 1
 0 <= x42 <= 1
 0 <= x43 <= 1
 0 <= x44 <= 1
 0 <= x45 <= 1
 0 <= x46 <= 1
 0 <= x47 <= 1
 0 <= x48 <= 1
 0 <= x49 <= 1
 0 <= x50 <= 1
 0 <= x51 <= 1
 0 <= x52 <= 1
 0 <= x53 <= 1
 0 <= x54 <= 1
 0 <= x55 <= 1
 0 <= x56 <= 1
 0 <= x57 <= 1
 0 <= x58 <= 1
 0 <= x59 <= 1
 0 <= x60 <= 1
 0 <= x61 <= 1
 0 <= x62 <= 1
 0 <= x63 <= 1
 0 <= x64 <= 1
 0 <= x65 <= 1
 0 <= x66 <= 1
 0 <= x67 <= 1
 0 <= x68 <= 1
 0 <= x69 <= 1
 0 <= x70 <= 1
 0 <= x71 <= 1
 0 <= x72 <= 1
 0 <= x73 <= 1
 0 <= x74 <= 1
 0 <= x75 <= 1
 0 <= x76 <= 1
 0 <= x77 <= 1
 0 <= x78 <= 1
 0 <= x79 <= 1
 0 <= x80 <= 1
 0 <= x81 <= 1
 0 <= x82 <= 1
 0 <= x83 <= 1
 0 <= x84 <= 1
 0 <= x85 <= 1
 0 <= x86 <= 1
 0 <= x87 <= 1
 0 <= x88 <= 1
 0 <= x89 <= 1
 0 <= x90 <= 1
 0 <= x91 <= 1
 0 <= x92 <= 1
 0 <= x93 <= 1
 0 <= x94 <= 1
 0 <= x95 <= 1
 0 <= x96 <= 1
 0 <= x97 <= 1
 0 <= x98 <= 1
 0 <= x99 <= 1
 0 <= x100 <= 1
 0 <= x101 <= 1
 0 <= x102 <= 1
 0 <= x103 <= 1
 0 <= x104 <= 1
 0 <= x105 <= 1
 0 <= x106 <= 1
 0 <= x107 <= 1
 0 <= x108 <= 1
 0 <= x109 <= 1
 0 <= x110 <= 1
 0 <= x111 <= 1
 0 <= x112 <= 1
 0 <= x113 <= 1
 0 <= x114 <= 1
 0 <= x115 <= 1
 0 <= x116 <= 1
 0 <= x117 <= 1
 0 <= x118 <= 1
 0 <= x119 <= 1
 0 <= x120 <= 1
 0 <= x121 <= 1
 0 <= x122 <= 1
 0 <= x123 <= 1
 0 <= x124 <= 1
 0 <= x125 <= 1
 0 <= x126 <= 1
 0 <= x127 <= 1
 0 <= x128 <= 1
 0 <= x129 <= 1
 0 <= x130 <= 1
 0 <= x131 <= 1
 0 <= x132 <= 1
 0 <= x133 <= 1
 0 <= x134 <= 1
 0 <= x135 <= 1
 0 <= x136 <= 1
 0 <= x137 <= 1
 0 <= x138 <= 1
 0 <= x139 <= 1
 0 <= x140 <= 1
 0 <= x141 <= 1
 0 <= x142 <= 1
 0 <= x143 <= 1
 0 <= x144 <= 1
 0 <= x145 <= 1
 0 <= x146 <= 1
 0 <= x147 <= 1
 0 <= x148 <= 1
 0 <= x149 <= 1
 0 <= x150 <= 1
 0 <= x151 <= 1
 0 <= x152 <= 1
 0 <= x153 <= 1
 0 <= x154 <= 1
 0 <= x155 <= 1
 0 <= x156 <= 1
 0 <= x157 <= 1
 0 <= x158 <= 1
 0 <= x159 <= 1
 0 <= x160 <= 1
 0 <= x161 <= 1
 0 <= x162 <= 1
 0 <= x163 <= 1
 0 <= x164 <= 1
 0 <= x165 <= 1
 0 <= x166 <= 1
 0 <= x167 <= 1
 0 <= x168 <= 1
 0 <= x169 <= 1
 0 <= x170 <= 1
 0 <= x171 <= 1
 0 <= x172 <= 1
 0 <= x173 <= 1
 0 <= x174 <= 1
 0 <= x175 <= 1
 0 <= x176 <= 1
 0 <= x177 <= 1
 0 <= x178 <= 1
 0 <= x179 <= 1
 0 <= x180 <= 1
 0 <= x181 <= 1
 0 <= x182 <= 1
 0 <= x183 <= 1
 0 <= x184 <= 1
 0 <= x185 <= 1
 0 <= x186 <= 1
 0 <= x187 <= 1
 0 <= x188 <= 1
 0 <= x189 <= 1
 0 <= x190 <= 1
 0 <= x191 <= 1
 0 <= x192 <= 1
 0 <= x193 <= 1
 0 <= x194 <= 1
 0 <= x195 <= 1
 0 <= x196 <= 1
 0 <= x197 <= 1
 0 <= x198 <= 1
 0 <= x199 <= 1
 0 <= x200 <= 1
 0 <= x201 <= 1
 0 <= x202 <= 1
 0 <= x203 <= 1
 0 <= x204 <= 1
 0 <= x205 <= 1
 0 <= x206 <= 1
 0 <= x207 <= 1
 0 <= x208 <= 1
 0 <= x209 <= 1
 0 <= x210 <= 1
 0 <= x211 <= 1
 0 <= x212 <= 1
 0 <= x213 <= 1
 0 <= x214 <= 1
 0 <= x215 <= 1
 0 <= x216 <= 1
 0 <= x217 <= 1
 0 <= x218 <= 1
 0 <= x219 <= 1
 0 <= x220 <= 1
 0 <= x221 <= 1
 0 <= x222 <= 1
 0 <= x223 <= 1
 0 <= x224 <= 1
 0 <= x225 <= 1
 0 <= x226 <= 1
 0 <= x227 <= 1
 0 <= x228 <= 1
 0 <= x229 <= 1
 0 <= x230 <= 1
 0 <= x231 <= 1
 0 <= x232 <= 1
 0 <= x233 <= 1
 0 <= x234 <= 1
 0 <= x235 <= 1
 0 <= x236 <= 1
 0 <= x237 <= 1
 0 <= x238 <= 1
 0 <= x239 <= 1
 0 <= x240 <= 1
 0 <= x241 <= 1
 0 <= x242 <= 1
 0 <= x243 <= 1
 0 <= x244 <= 1
 0 <= x245 <= 1
 0 <= x246 <= 1
 0 <= x247 <= 1
 0 <= x248 <= 1
 0 <= x249 <= 1
 0 <= x250 <= 1
 0 <= x251 <= 1
 0 <= x252 <= 1
 0 <= x253 <= 1
 0 <= x254 <= 1
 0 <= x255 <= 1
 0 <= x256 <= 1
 0 <= x257 <= 1
 0 <= x258 <= 1
 0 <= x259 <= 1
 0 <= x260 <= 1
 0 <= x261 <= 1
 0 <= x262 <= 1
 0 <= x263 <= 1
 0 <= x264 <= 1
 0 <= x265 <= 1
 0 <= x266 <= 1
 0 <= x267 <= 1
 0 <= x268 <= 1
 0 <= x269 <= 1
 0 <= x270 <= 1
 0 <= x271 <= 1
 0 <= x272 <= 1
 0 <= x273 <= 1
 0 <= x274 <= 1
 0 <= x275 <= 1
 0 <= x276 <= 1
 0 <= x277 <= 1
 0 <= x278 <= 1
 0 <= x279 <= 1
 0 <= x280 <= 1
 0 <= x281 <= 1
 0 <= x282 <= 1
 0 <= x283 <= 1
 0 <= x284 <= 1
 0 <= x285 <= 1
 0 <= x286 <= 1
 0 <= x287 <= 1
 0 <= x288 <= 1
 0 <= x289 <= 1
 0 <= x290 <= 1
 0 <= x291 <= 1
 0 <= x292 <= 1
 0 <= x293 <= 1
 0 <= x294 <= 1
 0 <= x295 <= 1
 0 <= x296 <= 1
 0 <= x297 <= 1
 0 <= x298 <= 1
 0 <= x299 <= 1
 0 <= x300 <= 1
 0 <= x301 <= 1
 0 <= x302 <= 1
 0 <= x303 <= 1
 0 <= x304 <= 1
 0 <= x305 <= 1
 0 <= x306 <= 1
 0 <= x307 <= 1
 0 <= x308 <= 1
 0 <= x309 <= 1
 0 <= x310 <= 1
 0 <= x311 <= 1
 0 <= x312 <= 1
 0 <= x313 <= 1
 0 <= x314 <= 1
 0 <= x315 <= 1
 0 <= x316 <= 1
 0 <= x317 <= 1
 0 <= x318 <= 1
 0 <= x319 <= 1
 0 <= x320 <= 1
 0 <= x321 <= 1
 0 <= x322 <= 1
 0 <= x323 <= 1
 0 <= x324 <= 1
 0 <= x325 <= 1
 0 <= x326 <= 1
 0 <= x327 <= 1
 0 <= x328 <= 1
 0 <= x329 <= 1
 0 <= x330 <= 1
 0 <= x331 <= 1
 0 <= x332 <= 1
 0 <= x333 <= 1
 0 <= x334 <= 1
 0 <= x335 <= 1
 0 <= x336 <= 1
 0 <= x337 <= 1
 0 <= x338 <= 1
 0 <= x339 <= 1
 0 <= x340 <= 1
 0 <= x341 <= 1
 0 <= x342 <= 1
 0 <= x343 <= 1
 0 <= x344 <= 1
 0 <= x345 <= 1
 0 <= x346 <= 1
 0 <= x347 <= 1
 0 <= x348 <= 1
 0 <= x349 <= 1
 0 <= x350 <= 1
 0 <= x351 <= 1
 0 <= x352 <= 1
 0 <= x353 <= 1
 0 <= x354 <= 1
 0 <= x355 <= 1
 0 <= x356 <= 1
 0 <= x357 <= 1
 0 <= x358 <= 1
 0 <= x359 <= 1
 0 <= x360 <= 1
Binaries
 x301  x302  x303  x304  x305  x306  x307  x308  x309  x310  x311  x312  x313 
 x314  x315  x316  x317  x318  x319  x320  x321  x322  x323  x324  x325  x326 
 x327  x328  x329  x330  x331  x332  x333  x334  x335  x336  x337  x338  x339 
 x340  x341  x342  x343  x344  x345  x346  x347  x348  x349  x350  x351  x352 
 x353  x354  x355  x356  x357  x358  x359  x360 
End
